<number of tasks>
8

<cycle time>
20

<task times>
1 11
2 17
3 9
4 5
5 8
6 12
7 10
8 3

<precedence relations>
1,2
2,3
2,4
3,5
3,6
4,6
5,7
6,8

<setup times forward>
1,2:2
2,3:3
2,4:3
3,5:2
3,6:2
4,5:2
4,6:2
4,7:1
5,4:2
5,7:1
5,8:1
6,7:1
6,8:1
7,4:1
7,6:1
8,5:1

<setup times backward>
2,1:2
5,1:1
5,3:2
5,4:2
5,8:1
6,1:1
6,3:2
6,4:2
6,7:1
7,3:1
7,4:1
8,3:1
8,4:1

<end>

<optimal SALBP-1 value>
5


<rand seed>
467321153

